100
128
53
39
56
3
57
22
16
2
25
1
48
35
29
40
51
39
63
24
27
45
19
9
12
57
57
38
20
21
11
17
47
25
20
62
11
12
49
25
21
1
33
33
43
12
60
49
12
36
37
13
13
51
11
21
8
32
33
25
50
55
22
28
27
17
16
57
26
21
45
21
2
32
25
63
16
22
16
47
15
27
44
2
23
57
52
33
7
1
58
38
52
11
30
64
39
43
53
44
33
56